Optimal - objective value 4.00000000
      0 x_0_0                      1                       0
     20 x_1_7                      1                       0
     33 x_2_7                      1                       0
     46 x_3_7                      1                       0
     59 x_4_7                      1                      -1
     72 x_5_7                      1                       0
     84 x_6_6                      1                       0
     97 x_7_6                      1                       0
    114 x_8_10                     1                       0
    123 x_9_6                      1                       0
    140 x_10_10                    1                       0
    153 x_11_10                    1                       0
    162 x_12_6                     1                       0
    169 y_0                        1                       1
    175 y_6                        1                       1
    176 y_7                        1                       1
    179 y_10                       1                       1
